\ Model vert
\ LP format - for model browsing. Use MPS format to capture full model detail.
Minimize
  92865.69476576753 S_coef + 809.4853993201914 Constant + [
   5.326864e+06 S_coef ^2 ] / 2 
Subject To
Bounds
 -1000 <= S_coef <= 0
 Constant = 1
End
